; benchmark generated from python API
(set-info :status unknown)
(declare-datatypes ((RealState 0)) (((RMk1 (rval1 Real)) (RMk2 (rval2 Real)))))
 (assert
 (forall ((|v9:0| Real) )(exists ((|v8:1_st| RealState) (val!985 Real) )(forall ((|v7:2| Real) )(exists ((|v6:3_st| RealState) (val!986 Real) )(forall ((|v5:4| Real) )(exists ((|v4:5_st| RealState) (val!987 Real) )(forall ((|v3:6| Real) )(exists ((|v2:7_st| RealState) (val!988 Real) )(forall ((|v1:8| Real) )(exists ((|v0:9_st| RealState) (val!989 Real) )(let ((?x854 (- 15.0)))
 (let (($x360 (<= (+ (+ (* 10.0 (rval2 |v4:5_st|)) (* (- 13.0) |v9:0|)) (* ?x854 |v5:4|)) ?x854)))
 (let ((?x636 (- 1.0)))
 (let ((?x810 (rval2 |v6:3_st|)))
 (let ((?x822 (* 3.0 ?x810)))
 (let ((?x1312 (+ (+ (* (- 19.0) ?x810) (* 3.0 |v3:6|)) (* (- 19.0) (rval2 |v2:7_st|)))))
 (let (($x1220 (and (<= ?x1312 ?x636) (<= (+ (+ (* 17.0 (rval2 |v8:1_st|)) (* ?x854 |v9:0|)) ?x822) ?x636))))
 (let ((?x106 (+ (+ (* (- 20.0) |v7:2|) (* (- 6.0) |v9:0|)) (* ?x636 (rval2 |v8:1_st|)))))
 (let (($x620 (<= (+ (+ (* 7.0 (rval2 |v4:5_st|)) (* 4.0 |v9:0|)) (rval2 |v4:5_st|)) 18.0)))
 (let ((?x1306 (+ (+ (* ?x636 (rval2 |v4:5_st|)) (* (- 10.0) |v5:4|)) (* 15.0 (rval2 |v8:1_st|)))))
 (let ((?x664 (+ (+ (* ?x854 |v9:0|) (* 4.0 (rval2 |v4:5_st|))) (* (- 16.0) (rval2 |v8:1_st|)))))
 (let (($x331 (and (or (<= ?x664 4.0) (<= ?x1306 0.0)) (and $x620 (<= ?x106 11.0)))))
 (let ((?x934 (- 11.0)))
 (let ((?x891 (rval2 |v0:9_st|)))
 (let ((?x1414 (* 12.0 ?x891)))
 (let ((?x1166 (+ (+ (* (- 12.0) (rval2 |v4:5_st|)) (* (- 10.0) |v3:6|)) (* (- 16.0) |v9:0|))))
 (let (($x55 (and (<= ?x1166 12.0) (<= (+ (+ ?x1414 (* ?x854 (rval2 |v2:7_st|))) ?x1414) ?x934))))
 (let ((?x786 (+ (+ (* (- 16.0) |v1:8|) (* (- 14.0) |v5:4|)) (* (- 4.0) (rval2 |v2:7_st|)))))
 (let (($x1365 (or (<= ?x786 13.0) (<= (+ (+ (* 13.0 ?x891) ?x891) (* ?x636 |v7:2|)) (- 18.0)))))
 (let ((?x173 (+ (+ (* 10.0 |v5:4|) (* (- 14.0) |v7:2|)) (* (- 5.0) (rval2 |v2:7_st|)))))
 (let ((?x1409 (- 13.0)))
 (let (($x417 (or (<= (+ (+ (* ?x1409 |v1:8|) (* ?x636 |v1:8|)) (* (- 2.0) |v5:4|)) ?x1409) (<= ?x173 8.0))))
 (let ((?x1074 (- 4.0)))
 (let ((?x23 (- 16.0)))
 (let ((?x624 (* ?x23 |v5:4|)))
 (let (($x1334 (<= (+ (+ (* ?x1074 |v7:2|) (* ?x1409 (rval2 |v4:5_st|))) (* 16.0 |v1:8|)) ?x934)))
 (let (($x1206 (and $x1334 (<= (+ (+ (* (- 14.0) ?x891) (* 16.0 (rval2 |v2:7_st|))) ?x624) ?x1074))))
 (let (($x149 (and (and (and $x1206 $x417) (and $x1365 $x55)) (or $x331 (and $x1220 $x360)))))
 (let (($x338 (<= (+ (+ (* (- 10.0) |v7:2|) (* 17.0 |v7:2|)) (* (- 10.0) |v7:2|)) 14.0)))
 (let (($x1005 (and $x338 (<= (+ (+ (* ?x934 |v1:8|) (* ?x1409 (rval2 |v4:5_st|))) ?x891) 0.0))))
 (let ((?x397 (+ (+ (* (- 9.0) (rval2 |v2:7_st|)) (* ?x854 (rval2 |v4:5_st|))) (* (- 2.0) (rval2 |v2:7_st|)))))
 (let ((?x1187 (- 9.0)))
 (let ((?x209 (+ (+ (* 6.0 |v1:8|) (* (- 18.0) (rval2 |v2:7_st|))) (* (- 3.0) |v7:2|))))
 (let ((?x708 (- 14.0)))
 (let ((?x790 (+ (+ (* (- 8.0) (rval2 |v8:1_st|)) (* 12.0 (rval2 |v4:5_st|))) (* (- 20.0) (rval2 |v4:5_st|)))))
 (let (($x160 (or (<= ?x790 ?x708) (<= (+ (+ (* 17.0 |v3:6|) (rval2 |v2:7_st|)) (* 2.0 |v1:8|)) 8.0))))
 (let ((?x684 (- 17.0)))
 (let (($x977 (<= (+ (+ (* 6.0 (rval2 |v8:1_st|)) (* 0.0 ?x891)) (* 15.0 |v9:0|)) ?x684)))
 (let ((?x759 (- 20.0)))
 (let ((?x767 (rval2 |v4:5_st|)))
 (let ((?x431 (* 3.0 ?x767)))
 (let (($x184 (and (<= (+ (+ (* 4.0 ?x891) (* 14.0 (rval2 |v2:7_st|))) ?x431) ?x759) $x977)))
 (let ((?x246 (- 6.0)))
 (let ((?x340 (+ (+ (* (- 5.0) ?x891) (* (- 10.0) (rval2 |v2:7_st|))) (* (- 2.0) ?x767))))
 (let (($x701 (and (<= (+ (+ (* 19.0 |v5:4|) (* ?x684 ?x891)) (* ?x684 |v1:8|)) ?x1409) (<= (+ (+ |v1:8| (* 8.0 |v7:2|)) (* (- 7.0) |v9:0|)) 3.0))))
 (let (($x1159 (<= (+ (+ (* (- 3.0) ?x810) (* 7.0 (rval2 |v8:1_st|))) (* 19.0 |v5:4|)) 1.0)))
 (let (($x1238 (<= (+ (+ (* (- 18.0) |v5:4|) (* 4.0 ?x767)) (* 14.0 (rval2 |v8:1_st|))) 12.0)))
 (let (($x169 (or (<= (+ (+ (* 4.0 ?x767) (* 6.0 ?x767)) (* ?x854 |v3:6|)) ?x1409) (or $x1238 $x1159))))
 (let (($x1015 (and (and $x169 (or $x701 (<= ?x340 ?x246))) (and (and $x184 $x160) (or (or (<= ?x209 ?x1187) (<= ?x397 ?x854)) $x1005)))))
 (let (($x945 (not (= |v0:9_st| (RMk1 val!989)))))
 (let (($x729 (not (= |v2:7_st| (RMk1 val!988)))))
 (let (($x655 (not (= |v4:5_st| (RMk1 val!987)))))
 (let (($x501 (not (= |v6:3_st| (RMk1 val!986)))))
 (let (($x699 (not (= |v8:1_st| (RMk1 val!985)))))
 (and $x699 $x501 $x655 $x729 $x945 (or $x1015 $x149)))))))))))))))))))))))))))))))))))))))))))))))))))))))))
 )
 )
 )
 )
 )
 )
 )
 )
 )
 )
(check-sat)
